(set-info :smt-lib-version 2.6)
(set-logic QF_UF)
(set-info :category "crafted")
(set-info :status sat)
(declare-sort S1 0)
(declare-fun a () S1)
(declare-fun b () S1)
(declare-fun c () S1)
(assert (and (= a b) (not(= c b)) ))
(check-sat)
(exit)